Version identifier: 22.1.0.0 | 2022-03-09 | 1a383f8ce
CPXPARAM_Threads                                 1
CPXPARAM_MIP_Strategy_VariableSelect             3
CPXPARAM_TimeLimit                               599.99998425399997
1 of 1 MIP starts provided solutions.
MIP start 'm1' defined initial solution with objective 1.0000.
Tried aggregator 1 time.
MIP Presolve eliminated 15 rows and 0 columns.
MIP Presolve modified 46 coefficients.
Reduced MIP has 4006 rows, 10500 columns, and 207221 nonzeros.
Reduced MIP has 10500 binaries, 0 generals, 0 SOSs, and 0 indicators.
Presolve time = 0.20 sec. (326.36 ticks)
Probing time = 0.03 sec. (24.63 ticks)
Tried aggregator 1 time.
Detecting symmetries...
MIP Presolve modified 15 coefficients.
Reduced MIP has 4006 rows, 10500 columns, and 207389 nonzeros.
Reduced MIP has 10500 binaries, 0 generals, 0 SOSs, and 0 indicators.
Presolve time = 0.20 sec. (317.83 ticks)
Probing time = 0.03 sec. (24.64 ticks)
Clique table members: 2991.
MIP emphasis: balance optimality and feasibility.
MIP search method: dynamic search.
Parallel mode: none, using 1 thread.
Root relaxation solution time = 3.24 sec. (3956.61 ticks)

        Nodes                                         Cuts/
   Node  Left     Objective  IInf  Best Integer    Best Bound    ItCnt     Gap

*     0+    0                            1.0000   125250.0000              --- 
      0     0      500.0000  1994        1.0000      500.0000     8387     --- 
*     0+    0                          263.0000      500.0000            90.11%
      0     0      500.0000   259      263.0000      Cuts: 12    11535   90.11%
*     0+    0                          500.0000      500.0000             0.00%
      0     0        cutoff            500.0000      500.0000    11535    0.00%
Elapsed time = 38.43 sec. (40515.63 ticks, tree = 0.01 MB, solutions = 3)

Clique cuts applied:  5
Zero-half cuts applied:  1

Root node processing (before b&c):
  Real time             =   38.44 sec. (40516.11 ticks)
Sequential b&c:
  Real time             =    0.00 sec. (0.00 ticks)
                          ------------
Total (root+branch&cut) =   38.44 sec. (40516.11 ticks)
11
9
4
0
10
2
0
10
15
0
10
15
0
10
15
0
10
15
0
14
9
0
16
9
0
7
9
0
14
1
0
16
9
0
16
9
0
16
9
0
14
9
0
14
19
12
14
19
12
16
19
12
16
19
12
4
10
2
4
18
2
5
18
2
4
18
2
3
18
2
3
18
3
5
8
7
5
17
7
13
17
16
4
17
5
7
8
13
4
10
15
0
1
15
11
1
15
11
1
2
5
18
2
4
18
2
4
18
2
3
18
4
2
11
1
15
11
1
15
11
1
15
11
1
5
11
9
5
11
9
6
11
9
5
11
9
13
11
9
13
7
17
13
7
17
13
7
17
13
16
8
3
3
18
2
5
18
2
5
18
2
3
18
2
4
18
2
3
18
2
3
18
4
2
10
0
15
10
0
15
1
11
5
9
7
3
8
16
5
8
7
6
8
7
6
8
7
5
17
5
3
18
2
5
18
2
4
10
2
3
18
2
3
1
11
15
1
11
15
1
14
2
1
11
15
1
11
13
9
11
13
1
12
7
19
12
16
19
12
16
19
12
4
10
2
0
19
7
12
1
16
12
1
6
12
10
6
0
10
15
0
10
15
0
10
15
0
10
13
12
1
6
11
9
4
11
9
5
11
9
13
11
9
5
11
9
13
11
9
13
11
9
13
7
8
13
16
8
4
4
8
7
4
17
16
4
8
7
4
8
4
7
8
5
7
17
13
16
8
3
7
8
4
14
17
4
7
8
4
16
17
13
7
17
13
7
8
6
16
8
13
14
8
13
16
8
13
7
8
3
16
17
6
16
17
6
16
8
6
16
17
6
7
17
6
7
8
5
7
8
13
7
17
6
16
8
4
6
8
7
3
8
6
16
8
3
14
17
3
14
8
13
16
8
4
7
17
6
7
17
4
14
8
3
14
17
4
14
17
13
16
8
5
7
17
13
14
17
4
6
17
14
13
17
14
3
8
13
7
8
3
13
10
0
15
10
5
12
1
13
12
14
19
12
14
19
12
14
1
12
14
19
12
14
19
12
14
1
12
7
1
12
16
19
12
14
1
12
16
19
12
14
19
12
14
1
12
6
10
0
15
10
4
12
19
16
12
19
14
12
19
7
12
19
5
11
9
13
11
9
Primal:	500
Dual:	500
Status:	Optimal
Time:	38.47
